30 40 20
1 10 13 5 0 0 0
1 10 13 5 10 0 0
1 10 13 5 20 0 0
1 10 13 5 0 13 0
1 10 13 5 10 13 0
1 10 13 5 20 13 0
1 10 13 5 0 26 0
1 10 13 5 10 26 0
1 10 13 5 20 26 0
1 10 13 5 0 0 5
1 10 13 5 10 0 5
1 10 13 5 20 0 5
1 10 13 5 0 13 5
1 10 13 5 10 13 5
1 5 7 8 20 13 5
1 5 8 7 25 13 5
1 5 7 8 0 26 5
1 7 8 5 5 26 5
1 5 7 8 12 26 5
1 7 8 5 17 26 5
1 5 7 8 24 26 5
1 8 5 7 5 34 5
1 7 5 8 13 34 5
1 8 5 7 20 34 5
1 5 7 8 0 33 5
1 5 7 8 0 0 10
1 5 7 8 5 0 10
1 7 8 5 10 0 10
1 7 8 5 17 0 10
1 5 8 7 24 0 10
1 5 7 8 0 7 10
1 5 7 8 5 7 10
1 5 7 8 10 8 10
1 7 8 5 0 14 10
1 7 8 5 10 15 10
1 7 8 5 20 13 13
1 7 8 5 20 21 13
1 7 8 5 20 29 13
1 7 8 5 0 26 13
1 7 8 5 7 26 13
1 8 5 7 0 34 13
1 8 5 7 8 34 13
1 7 8 5 10 0 15
1 2 4 8 28 34 5
1 2 8 4 27 13 13
1 2 8 4 27 21 13
1 2 8 4 27 29 13
1 4 8 2 14 26 13
1 4 8 2 17 0 15
1 8 2 4 20 37 13
1 4 8 2 5 26 10
1 4 8 2 17 26 10
1 4 8 2 0 0 18
1 4 8 2 4 0 18
1 4 8 2 0 8 18
1 4 8 2 4 8 18
1 1 3 5 29 26 5
1 1 3 5 29 0 10
1 3 1 5 15 8 10
1 3 1 5 7 14 10
1 3 1 5 17 15 10
1 2 1 2 16 34 13
1 1 2 2 29 13 13
1 1 2 2 29 21 13
1 1 2 2 29 29 13
1 2 1 2 18 26 13
1 2 1 2 21 0 15
1 2 1 2 28 37 13
1 2 1 2 9 26 10
1 2 1 2 21 26 10
1 2 1 2 8 0 18
1 2 1 2 8 8 18
1 2 1 2 18 8 10
1 2 1 2 18 34 13
1 2 1 2 10 8 18
1 2 1 2 20 8 10
1 2 1 2 12 8 18
1 2 1 2 22 8 10
1 2 1 2 14 8 18
1 2 1 2 24 8 10
1 2 1 2 16 8 18
1 2 1 2 26 8 10
1 2 1 2 18 8 18
1 2 1 2 28 8 10
1 2 1 2 20 8 18
1 2 1 2 22 8 18
1 2 1 2 24 8 18
1 2 1 2 26 8 18
1 2 1 2 28 8 18
1 2 1 2 0 39 0
1 2 1 2 2 39 0
1 2 1 2 4 39 0
1 2 1 2 6 39 0
1 2 1 2 8 39 0
1 2 1 2 10 39 0
1 2 1 2 12 39 0
1 2 1 2 14 39 0
